c description: Random 3-CNF over 23 variables and 98 clauses
c generator: CNFgen (0.9.2)
c copyright: (C) 2012-2022 Massimo Lauria <massimo.lauria@uniroma1.it>
c url: https://massimolauria.net/cnfgen
c command line: cnfgen --output CNF_4.28/23_bit_98_352.cnf randkcnf 3 23 98
c
p cnf 23 98
-13 -16 -22 0
-4 -18 22 0
11 -19 20 0
7 -14 23 0
8 21 -22 0
9 10 -19 0
-6 -9 11 0
2 13 22 0
-7 13 14 0
1 6 12 0
9 -11 -15 0
-2 -10 14 0
5 13 14 0
1 13 15 0
2 6 15 0
-4 -12 -19 0
1 -16 22 0
8 11 17 0
-7 -9 -16 0
7 -10 -19 0
8 18 20 0
1 -2 5 0
-3 -4 -20 0
13 14 15 0
-3 -14 15 0
-1 -17 18 0
1 -3 -17 0
7 9 -20 0
-5 -20 -22 0
-4 15 -16 0
10 -21 -23 0
2 7 -23 0
-1 -4 -17 0
3 -7 -11 0
18 20 -23 0
-1 10 -15 0
4 5 -6 0
-2 17 -19 0
-2 12 -17 0
3 -4 -7 0
-2 -7 -10 0
-11 -16 -20 0
6 8 -9 0
2 9 10 0
4 12 -17 0
6 15 -19 0
7 -8 18 0
-2 -8 -11 0
-1 -14 21 0
-2 -11 -22 0
13 -20 23 0
2 9 17 0
1 12 -14 0
-2 11 21 0
3 12 -17 0
-12 18 -22 0
-6 13 -17 0
-4 13 -23 0
11 -12 22 0
-10 17 20 0
3 -5 16 0
-6 11 20 0
5 9 -11 0
-13 18 21 0
-8 -10 -16 0
1 6 8 0
3 -8 -16 0
5 19 -23 0
-10 21 23 0
2 8 -9 0
-1 10 -18 0
6 -8 15 0
9 11 -13 0
8 18 -21 0
-7 -10 23 0
-8 -13 19 0
-5 -19 -22 0
3 4 7 0
-17 20 21 0
8 15 18 0
2 6 -22 0
6 7 -19 0
-14 -18 -21 0
-3 -8 22 0
-2 7 17 0
-2 15 19 0
-12 -17 -18 0
2 -4 -11 0
-3 -6 -22 0
-2 -3 -20 0
6 -14 17 0
5 6 20 0
4 -6 -22 0
1 -4 -14 0
-6 11 -18 0
-7 -10 16 0
15 17 -18 0
-1 -18 22 0
